p cnf 273 1094
c p weight 8 1 0
c p weight -8 1 0
c p weight 9 0 0
c p weight -9 1 0
c p weight 10 -1 0
c p weight -10 1 0
c p weight 12 6.12323399573676603586882014729198302312846062338790031898128063403419218957424163818359375E-17 0
c p weight -12 1 0
c p weight 13 1 0
c p weight -13 1 0
c p weight 14 -1 0
c p weight -14 1 0
c p weight 16 -0.1335612396259832357348074083347455598413944244384765625 0
c p weight -16 1 0
c p weight 17 0.99104056186897349078890329110436141490936279296875 0
c p weight -17 1 0
c p weight 18 -1 0
c p weight -18 1 0
c p weight 20 6.12323399573676603586882014729198302312846062338790031898128063403419218957424163818359375E-17 0
c p weight -20 1 0
c p weight 21 1 0
c p weight -21 1 0
c p weight 22 -1 0
c p weight -22 1 0
c p weight 24 -1 0
c p weight -24 1 0
c p weight 25 3.673940397442059375002259206809000622711899723162043418511757408850826323032379150390625E-16 0
c p weight -25 1 0
c p weight 26 -1 0
c p weight -26 1 0
c p weight 28 1 0
c p weight -28 1 0
c p weight 29 0 0
c p weight -29 1 0
c p weight 30 -1 0
c p weight -30 1 0
c p weight 32 6.12323399573676603586882014729198302312846062338790031898128063403419218957424163818359375E-17 0
c p weight -32 1 0
c p weight 33 1 0
c p weight -33 1 0
c p weight 34 -1 0
c p weight -34 1 0
c p weight 36 -0.991511476394992374849834959604777395725250244140625 0
c p weight -36 1 0
c p weight 37 -0.130019199263118168108377403768827207386493682861328125 0
c p weight -37 1 0
c p weight 38 -1 0
c p weight -38 1 0
c p weight 40 6.12323399573676603586882014729198302312846062338790031898128063403419218957424163818359375E-17 0
c p weight -40 1 0
c p weight 41 1 0
c p weight -41 1 0
c p weight 42 -1 0
c p weight -42 1 0
c p weight 44 -1 0
c p weight -44 1 0
c p weight 45 3.673940397442059375002259206809000622711899723162043418511757408850826323032379150390625E-16 0
c p weight -45 1 0
c p weight 46 -1 0
c p weight -46 1 0
c p weight 49 -1 0
c p weight -49 1 0
c p weight 51 1 0
c p weight -51 1 0
c p weight 52 0 0
c p weight -52 1 0
c p weight 53 -1 0
c p weight -53 1 0
c p weight 55 6.12323399573676603586882014729198302312846062338790031898128063403419218957424163818359375E-17 0
c p weight -55 1 0
c p weight 56 1 0
c p weight -56 1 0
c p weight 57 -1 0
c p weight -57 1 0
c p weight 59 0.6676589223122142424671210392261855304241180419921875 0
c p weight -59 1 0
c p weight 60 0.74446730180505082952180373467854224145412445068359375 0
c p weight -60 1 0
c p weight 61 -1 0
c p weight -61 1 0
c p weight 63 6.12323399573676603586882014729198302312846062338790031898128063403419218957424163818359375E-17 0
c p weight -63 1 0
c p weight 64 1 0
c p weight -64 1 0
c p weight 65 -1 0
c p weight -65 1 0
c p weight 67 -1 0
c p weight -67 1 0
c p weight 68 3.673940397442059375002259206809000622711899723162043418511757408850826323032379150390625E-16 0
c p weight -68 1 0
c p weight 69 -1 0
c p weight -69 1 0
c p weight 72 -1 0
c p weight -72 1 0
c p weight 74 1 0
c p weight -74 1 0
c p weight 75 0 0
c p weight -75 1 0
c p weight 76 -1 0
c p weight -76 1 0
c p weight 78 6.12323399573676603586882014729198302312846062338790031898128063403419218957424163818359375E-17 0
c p weight -78 1 0
c p weight 79 1 0
c p weight -79 1 0
c p weight 80 -1 0
c p weight -80 1 0
c p weight 82 0.00751535691195858411572938706513014039956033229827880859375 0
c p weight -82 1 0
c p weight 83 0.999971759306474528017361080856062471866607666015625 0
c p weight -83 1 0
c p weight 84 -1 0
c p weight -84 1 0
c p weight 86 6.12323399573676603586882014729198302312846062338790031898128063403419218957424163818359375E-17 0
c p weight -86 1 0
c p weight 87 1 0
c p weight -87 1 0
c p weight 88 -1 0
c p weight -88 1 0
c p weight 90 -1 0
c p weight -90 1 0
c p weight 91 3.673940397442059375002259206809000622711899723162043418511757408850826323032379150390625E-16 0
c p weight -91 1 0
c p weight 92 -1 0
c p weight -92 1 0
c p weight 95 -1 0
c p weight -95 1 0
c p weight 97 1 0
c p weight -97 1 0
c p weight 98 0 0
c p weight -98 1 0
c p weight 99 -1 0
c p weight -99 1 0
c p weight 101 6.12323399573676603586882014729198302312846062338790031898128063403419218957424163818359375E-17 0
c p weight -101 1 0
c p weight 102 1 0
c p weight -102 1 0
c p weight 103 -1 0
c p weight -103 1 0
c p weight 105 0.99995600138413631707834383632871322333812713623046875 0
c p weight -105 1 0
c p weight 106 -0.00938058078421928620560521494553540833294391632080078125 0
c p weight -106 1 0
c p weight 107 -1 0
c p weight -107 1 0
c p weight 109 6.12323399573676603586882014729198302312846062338790031898128063403419218957424163818359375E-17 0
c p weight -109 1 0
c p weight 110 1 0
c p weight -110 1 0
c p weight 111 -1 0
c p weight -111 1 0
c p weight 113 -1 0
c p weight -113 1 0
c p weight 114 3.673940397442059375002259206809000622711899723162043418511757408850826323032379150390625E-16 0
c p weight -114 1 0
c p weight 115 -1 0
c p weight -115 1 0
c p weight 118 -1 0
c p weight -118 1 0
c p weight 120 1 0
c p weight -120 1 0
c p weight 121 0 0
c p weight -121 1 0
c p weight 122 -1 0
c p weight -122 1 0
c p weight 124 6.12323399573676603586882014729198302312846062338790031898128063403419218957424163818359375E-17 0
c p weight -124 1 0
c p weight 125 1 0
c p weight -125 1 0
c p weight 126 -1 0
c p weight -126 1 0
c p weight 128 -0.1576963200385754493293433142753201536834239959716796875 0
c p weight -128 1 0
c p weight 129 -0.98748765594628629127527119635487906634807586669921875 0
c p weight -129 1 0
c p weight 130 -1 0
c p weight -130 1 0
c p weight 132 6.12323399573676603586882014729198302312846062338790031898128063403419218957424163818359375E-17 0
c p weight -132 1 0
c p weight 133 1 0
c p weight -133 1 0
c p weight 134 -1 0
c p weight -134 1 0
c p weight 136 -1 0
c p weight -136 1 0
c p weight 137 3.673940397442059375002259206809000622711899723162043418511757408850826323032379150390625E-16 0
c p weight -137 1 0
c p weight 138 -1 0
c p weight -138 1 0
c p weight 141 -1 0
c p weight -141 1 0
c p weight 143 1 0
c p weight -143 1 0
c p weight 144 0 0
c p weight -144 1 0
c p weight 145 -1 0
c p weight -145 1 0
c p weight 147 6.12323399573676603586882014729198302312846062338790031898128063403419218957424163818359375E-17 0
c p weight -147 1 0
c p weight 148 1 0
c p weight -148 1 0
c p weight 149 -1 0
c p weight -149 1 0
c p weight 151 -0.3205694895363857543912899927818216383457183837890625 0
c p weight -151 1 0
c p weight 152 -0.94722500092553563177943942719139158725738525390625 0
c p weight -152 1 0
c p weight 153 -1 0
c p weight -153 1 0
c p weight 155 6.12323399573676603586882014729198302312846062338790031898128063403419218957424163818359375E-17 0
c p weight -155 1 0
c p weight 156 1 0
c p weight -156 1 0
c p weight 157 -1 0
c p weight -157 1 0
c p weight 159 -1 0
c p weight -159 1 0
c p weight 160 3.673940397442059375002259206809000622711899723162043418511757408850826323032379150390625E-16 0
c p weight -160 1 0
c p weight 161 -1 0
c p weight -161 1 0
c p weight 164 -1 0
c p weight -164 1 0
c p weight 166 1 0
c p weight -166 1 0
c p weight 167 0 0
c p weight -167 1 0
c p weight 168 -1 0
c p weight -168 1 0
c p weight 170 6.12323399573676603586882014729198302312846062338790031898128063403419218957424163818359375E-17 0
c p weight -170 1 0
c p weight 171 1 0
c p weight -171 1 0
c p weight 172 -1 0
c p weight -172 1 0
c p weight 174 -0.06611814736078959475751304353252635337412357330322265625 0
c p weight -174 1 0
c p weight 175 0.99781180118776757748122463453910313546657562255859375 0
c p weight -175 1 0
c p weight 176 -1 0
c p weight -176 1 0
c p weight 178 6.12323399573676603586882014729198302312846062338790031898128063403419218957424163818359375E-17 0
c p weight -178 1 0
c p weight 179 1 0
c p weight -179 1 0
c p weight 180 -1 0
c p weight -180 1 0
c p weight 182 -1 0
c p weight -182 1 0
c p weight 183 3.673940397442059375002259206809000622711899723162043418511757408850826323032379150390625E-16 0
c p weight -183 1 0
c p weight 184 -1 0
c p weight -184 1 0
c p weight 187 -1 0
c p weight -187 1 0
c p weight 189 1 0
c p weight -189 1 0
c p weight 190 0 0
c p weight -190 1 0
c p weight 191 -1 0
c p weight -191 1 0
c p weight 193 6.12323399573676603586882014729198302312846062338790031898128063403419218957424163818359375E-17 0
c p weight -193 1 0
c p weight 194 1 0
c p weight -194 1 0
c p weight 195 -1 0
c p weight -195 1 0
c p weight 197 -0.486641861830141631006796387737267650663852691650390625 0
c p weight -197 1 0
c p weight 198 -0.873601567257347166872705201967619359493255615234375 0
c p weight -198 1 0
c p weight 199 -1 0
c p weight -199 1 0
c p weight 201 6.12323399573676603586882014729198302312846062338790031898128063403419218957424163818359375E-17 0
c p weight -201 1 0
c p weight 202 1 0
c p weight -202 1 0
c p weight 203 -1 0
c p weight -203 1 0
c p weight 205 -1 0
c p weight -205 1 0
c p weight 206 3.673940397442059375002259206809000622711899723162043418511757408850826323032379150390625E-16 0
c p weight -206 1 0
c p weight 207 -1 0
c p weight -207 1 0
c p weight 210 -1 0
c p weight -210 1 0
c p weight 212 1 0
c p weight -212 1 0
c p weight 213 0 0
c p weight -213 1 0
c p weight 214 -1 0
c p weight -214 1 0
c p weight 216 6.12323399573676603586882014729198302312846062338790031898128063403419218957424163818359375E-17 0
c p weight -216 1 0
c p weight 217 1 0
c p weight -217 1 0
c p weight 218 -1 0
c p weight -218 1 0
c p weight 220 -0.849871234472090453238024565507657825946807861328125 0
c p weight -220 1 0
c p weight 221 -0.52699040296468868671553309468436054885387420654296875 0
c p weight -221 1 0
c p weight 222 -1 0
c p weight -222 1 0
c p weight 224 6.12323399573676603586882014729198302312846062338790031898128063403419218957424163818359375E-17 0
c p weight -224 1 0
c p weight 225 1 0
c p weight -225 1 0
c p weight 226 -1 0
c p weight -226 1 0
c p weight 228 -1 0
c p weight -228 1 0
c p weight 229 3.673940397442059375002259206809000622711899723162043418511757408850826323032379150390625E-16 0
c p weight -229 1 0
c p weight 230 -1 0
c p weight -230 1 0
c p weight 233 -1 0
c p weight -233 1 0
c p weight 235 1 0
c p weight -235 1 0
c p weight 236 0 0
c p weight -236 1 0
c p weight 237 -1 0
c p weight -237 1 0
c p weight 239 6.12323399573676603586882014729198302312846062338790031898128063403419218957424163818359375E-17 0
c p weight -239 1 0
c p weight 240 1 0
c p weight -240 1 0
c p weight 241 -1 0
c p weight -241 1 0
c p weight 243 0.39507201275466863332752609494491480290889739990234375 0
c p weight -243 1 0
c p weight 244 0.918650153615605091772522428072988986968994140625 0
c p weight -244 1 0
c p weight 245 -1 0
c p weight -245 1 0
c p weight 247 6.12323399573676603586882014729198302312846062338790031898128063403419218957424163818359375E-17 0
c p weight -247 1 0
c p weight 248 1 0
c p weight -248 1 0
c p weight 249 -1 0
c p weight -249 1 0
c p weight 251 -1 0
c p weight -251 1 0
c p weight 252 3.673940397442059375002259206809000622711899723162043418511757408850826323032379150390625E-16 0
c p weight -252 1 0
c p weight 253 -1 0
c p weight -253 1 0
c p weight 255 1 0
c p weight -255 1 0
c p weight 256 0 0
c p weight -256 1 0
c p weight 257 -1 0
c p weight -257 1 0
c p weight 259 6.12323399573676603586882014729198302312846062338790031898128063403419218957424163818359375E-17 0
c p weight -259 1 0
c p weight 260 1 0
c p weight -260 1 0
c p weight 261 -1 0
c p weight -261 1 0
c p weight 263 -0.957428415249673481213221748475916683673858642578125 0
c p weight -263 1 0
c p weight 264 0.288670798094470992811721998805296607315540313720703125 0
c p weight -264 1 0
c p weight 265 -1 0
c p weight -265 1 0
c p weight 267 6.12323399573676603586882014729198302312846062338790031898128063403419218957424163818359375E-17 0
c p weight -267 1 0
c p weight 268 1 0
c p weight -268 1 0
c p weight 269 -1 0
c p weight -269 1 0
c p weight 271 -1 0
c p weight -271 1 0
c p weight 272 3.673940397442059375002259206809000622711899723162043418511757408850826323032379150390625E-16 0
c p weight -272 1 0
c p weight 273 -1 0
c p weight -273 1 0
-5 0
-3 0
-1 0
7 1 -2 0
-7 1 2 0
-8 1 0
7 -8 -2 0
-7 -8 2 0
7 8 -1 2 0
-7 8 -1 -2 0
-9 1 0
7 -9 2 0
-7 -9 -2 0
7 9 -1 -2 0
-7 9 -1 2 0
-10 1 0
-10 2 0
-10 -7 0
10 7 -1 -2 0
11 -1 7 0
-11 1 7 0
-12 7 0
11 -12 -1 0
-11 -12 1 0
11 12 1 -7 0
-11 12 -1 -7 0
-13 7 0
11 -13 1 0
-11 -13 -1 0
11 13 -1 -7 0
-11 13 1 -7 0
-14 11 0
-14 7 0
-14 -1 0
14 -11 1 -7 0
15 11 -7 0
-15 11 7 0
-16 11 0
15 -16 -7 0
-15 -16 7 0
15 16 -11 7 0
-15 16 -11 -7 0
-17 11 0
15 -17 7 0
-15 -17 -7 0
15 17 -11 -7 0
-15 17 -11 7 0
-18 11 0
-18 7 0
-18 -15 0
18 15 -11 -7 0
19 -11 15 0
-19 11 15 0
-20 15 0
19 -20 -11 0
-19 -20 11 0
19 20 11 -15 0
-19 20 -11 -15 0
-21 15 0
19 -21 11 0
-19 -21 -11 0
19 21 -11 -15 0
-19 21 11 -15 0
-22 19 0
-22 15 0
-22 -11 0
22 -19 11 -15 0
23 19 -15 0
-23 19 15 0
-24 19 0
23 -24 -15 0
-23 -24 15 0
23 24 -19 15 0
-23 24 -19 -15 0
-25 19 0
23 -25 15 0
-23 -25 -15 0
23 25 -19 -15 0
-23 25 -19 15 0
-26 19 0
-26 15 0
-26 -23 0
26 23 -19 -15 0
27 3 -4 0
-27 3 4 0
-28 3 0
27 -28 -4 0
-27 -28 4 0
27 28 -3 4 0
-27 28 -3 -4 0
-29 3 0
27 -29 4 0
-27 -29 -4 0
27 29 -3 -4 0
-27 29 -3 4 0
-30 3 0
-30 4 0
-30 -27 0
30 27 -3 -4 0
31 -3 27 0
-31 3 27 0
-32 27 0
31 -32 -3 0
-31 -32 3 0
31 32 3 -27 0
-31 32 -3 -27 0
-33 27 0
31 -33 3 0
-31 -33 -3 0
31 33 -3 -27 0
-31 33 3 -27 0
-34 31 0
-34 27 0
-34 -3 0
34 -31 3 -27 0
35 31 -27 0
-35 31 27 0
-36 31 0
35 -36 -27 0
-35 -36 27 0
35 36 -31 27 0
-35 36 -31 -27 0
-37 31 0
35 -37 27 0
-35 -37 -27 0
35 37 -31 -27 0
-35 37 -31 27 0
-38 31 0
-38 27 0
-38 -35 0
38 35 -31 -27 0
39 -31 35 0
-39 31 35 0
-40 35 0
39 -40 -31 0
-39 -40 31 0
39 40 31 -35 0
-39 40 -31 -35 0
-41 35 0
39 -41 31 0
-39 -41 -31 0
39 41 -31 -35 0
-39 41 31 -35 0
-42 39 0
-42 35 0
-42 -31 0
42 -39 31 -35 0
43 39 -35 0
-43 39 35 0
-44 39 0
43 -44 -35 0
-43 -44 35 0
43 44 -39 35 0
-43 44 -39 -35 0
-45 39 0
43 -45 35 0
-43 -45 -35 0
43 45 -39 -35 0
-43 45 -39 35 0
-46 39 0
-46 35 0
-46 -43 0
46 43 -39 -35 0
47 19 -39 0
47 -19 39 0
-47 19 39 0
-47 -19 -39 0
48 23 -43 0
48 -23 43 0
-48 23 43 0
-48 -23 -43 0
-49 19 0
-49 43 0
-49 39 -23 0
-49 -39 23 0
49 -19 39 23 -43 0
49 -19 -39 -23 -43 0
50 5 -6 0
-50 5 6 0
-51 5 0
50 -51 -6 0
-50 -51 6 0
50 51 -5 6 0
-50 51 -5 -6 0
-52 5 0
50 -52 6 0
-50 -52 -6 0
50 52 -5 -6 0
-50 52 -5 6 0
-53 5 0
-53 6 0
-53 -50 0
53 50 -5 -6 0
54 -5 50 0
-54 5 50 0
-55 50 0
54 -55 -5 0
-54 -55 5 0
54 55 5 -50 0
-54 55 -5 -50 0
-56 50 0
54 -56 5 0
-54 -56 -5 0
54 56 -5 -50 0
-54 56 5 -50 0
-57 54 0
-57 50 0
-57 -5 0
57 -54 5 -50 0
58 54 -50 0
-58 54 50 0
-59 54 0
58 -59 -50 0
-58 -59 50 0
58 59 -54 50 0
-58 59 -54 -50 0
-60 54 0
58 -60 50 0
-58 -60 -50 0
58 60 -54 -50 0
-58 60 -54 50 0
-61 54 0
-61 50 0
-61 -58 0
61 58 -54 -50 0
62 -54 58 0
-62 54 58 0
-63 58 0
62 -63 -54 0
-62 -63 54 0
62 63 54 -58 0
-62 63 -54 -58 0
-64 58 0
62 -64 54 0
-62 -64 -54 0
62 64 -54 -58 0
-62 64 54 -58 0
-65 62 0
-65 58 0
-65 -54 0
65 -62 54 -58 0
66 62 -58 0
-66 62 58 0
-67 62 0
66 -67 -58 0
-66 -67 58 0
66 67 -62 58 0
-66 67 -62 -58 0
-68 62 0
66 -68 58 0
-66 -68 -58 0
66 68 -62 -58 0
-66 68 -62 58 0
-69 62 0
-69 58 0
-69 -66 0
69 66 -62 -58 0
70 19 -62 0
70 -19 62 0
-70 19 62 0
-70 -19 -62 0
71 48 -66 0
71 -48 66 0
-71 48 66 0
-71 -48 -66 0
-72 19 0
-72 66 0
-72 62 -48 0
-72 -62 48 0
72 -19 62 48 -66 0
72 -19 -62 -48 -66 0
73 19 -71 0
-73 19 71 0
-74 19 0
73 -74 -71 0
-73 -74 71 0
73 74 -19 71 0
-73 74 -19 -71 0
-75 19 0
73 -75 71 0
-73 -75 -71 0
73 75 -19 -71 0
-73 75 -19 71 0
-76 19 0
-76 71 0
-76 -73 0
76 73 -19 -71 0
77 -19 73 0
-77 19 73 0
-78 73 0
77 -78 -19 0
-77 -78 19 0
77 78 19 -73 0
-77 78 -19 -73 0
-79 73 0
77 -79 19 0
-77 -79 -19 0
77 79 -19 -73 0
-77 79 19 -73 0
-80 77 0
-80 73 0
-80 -19 0
80 -77 19 -73 0
81 77 -73 0
-81 77 73 0
-82 77 0
81 -82 -73 0
-81 -82 73 0
81 82 -77 73 0
-81 82 -77 -73 0
-83 77 0
81 -83 73 0
-81 -83 -73 0
81 83 -77 -73 0
-81 83 -77 73 0
-84 77 0
-84 73 0
-84 -81 0
84 81 -77 -73 0
85 -77 81 0
-85 77 81 0
-86 81 0
85 -86 -77 0
-85 -86 77 0
85 86 77 -81 0
-85 86 -77 -81 0
-87 81 0
85 -87 77 0
-85 -87 -77 0
85 87 -77 -81 0
-85 87 77 -81 0
-88 85 0
-88 81 0
-88 -77 0
88 -85 77 -81 0
89 85 -81 0
-89 85 81 0
-90 85 0
89 -90 -81 0
-89 -90 81 0
89 90 -85 81 0
-89 90 -85 -81 0
-91 85 0
89 -91 81 0
-89 -91 -81 0
89 91 -85 -81 0
-89 91 -85 81 0
-92 85 0
-92 81 0
-92 -89 0
92 89 -85 -81 0
93 47 -70 0
93 -47 70 0
-93 47 70 0
-93 -47 -70 0
94 43 -66 0
94 -43 66 0
-94 43 66 0
-94 -43 -66 0
-95 47 0
-95 66 0
-95 70 -43 0
-95 -70 43 0
95 -47 70 43 -66 0
95 -47 -70 -43 -66 0
96 47 -94 0
-96 47 94 0
-97 47 0
96 -97 -94 0
-96 -97 94 0
96 97 -47 94 0
-96 97 -47 -94 0
-98 47 0
96 -98 94 0
-96 -98 -94 0
96 98 -47 -94 0
-96 98 -47 94 0
-99 47 0
-99 94 0
-99 -96 0
99 96 -47 -94 0
100 -47 96 0
-100 47 96 0
-101 96 0
100 -101 -47 0
-100 -101 47 0
100 101 47 -96 0
-100 101 -47 -96 0
-102 96 0
100 -102 47 0
-100 -102 -47 0
100 102 -47 -96 0
-100 102 47 -96 0
-103 100 0
-103 96 0
-103 -47 0
103 -100 47 -96 0
104 100 -96 0
-104 100 96 0
-105 100 0
104 -105 -96 0
-104 -105 96 0
104 105 -100 96 0
-104 105 -100 -96 0
-106 100 0
104 -106 96 0
-104 -106 -96 0
104 106 -100 -96 0
-104 106 -100 96 0
-107 100 0
-107 96 0
-107 -104 0
107 104 -100 -96 0
108 -100 104 0
-108 100 104 0
-109 104 0
108 -109 -100 0
-108 -109 100 0
108 109 100 -104 0
-108 109 -100 -104 0
-110 104 0
108 -110 100 0
-108 -110 -100 0
108 110 -100 -104 0
-108 110 100 -104 0
-111 108 0
-111 104 0
-111 -100 0
111 -108 100 -104 0
112 108 -104 0
-112 108 104 0
-113 108 0
112 -113 -104 0
-112 -113 104 0
112 113 -108 104 0
-112 113 -108 -104 0
-114 108 0
112 -114 104 0
-112 -114 -104 0
112 114 -108 -104 0
-112 114 -108 104 0
-115 108 0
-115 104 0
-115 -112 0
115 112 -108 -104 0
116 85 -108 0
116 -85 108 0
-116 85 108 0
-116 -85 -108 0
117 89 -112 0
117 -89 112 0
-117 89 112 0
-117 -89 -112 0
-118 85 0
-118 112 0
-118 108 -89 0
-118 -108 89 0
118 -85 108 89 -112 0
118 -85 -108 -89 -112 0
119 93 -66 0
-119 93 66 0
-120 93 0
119 -120 -66 0
-119 -120 66 0
119 120 -93 66 0
-119 120 -93 -66 0
-121 93 0
119 -121 66 0
-119 -121 -66 0
119 121 -93 -66 0
-119 121 -93 66 0
-122 93 0
-122 66 0
-122 -119 0
122 119 -93 -66 0
123 -93 119 0
-123 93 119 0
-124 119 0
123 -124 -93 0
-123 -124 93 0
123 124 93 -119 0
-123 124 -93 -119 0
-125 119 0
123 -125 93 0
-123 -125 -93 0
123 125 -93 -119 0
-123 125 93 -119 0
-126 123 0
-126 119 0
-126 -93 0
126 -123 93 -119 0
127 123 -119 0
-127 123 119 0
-128 123 0
127 -128 -119 0
-127 -128 119 0
127 128 -123 119 0
-127 128 -123 -119 0
-129 123 0
127 -129 119 0
-127 -129 -119 0
127 129 -123 -119 0
-127 129 -123 119 0
-130 123 0
-130 119 0
-130 -127 0
130 127 -123 -119 0
131 -123 127 0
-131 123 127 0
-132 127 0
131 -132 -123 0
-131 -132 123 0
131 132 123 -127 0
-131 132 -123 -127 0
-133 127 0
131 -133 123 0
-131 -133 -123 0
131 133 -123 -127 0
-131 133 123 -127 0
-134 131 0
-134 127 0
-134 -123 0
134 -131 123 -127 0
135 131 -127 0
-135 131 127 0
-136 131 0
135 -136 -127 0
-135 -136 127 0
135 136 -131 127 0
-135 136 -131 -127 0
-137 131 0
135 -137 127 0
-135 -137 -127 0
135 137 -131 -127 0
-135 137 -131 127 0
-138 131 0
-138 127 0
-138 -135 0
138 135 -131 -127 0
139 85 -131 0
139 -85 131 0
-139 85 131 0
-139 -85 -131 0
140 117 -135 0
140 -117 135 0
-140 117 135 0
-140 -117 -135 0
-141 85 0
-141 135 0
-141 131 -117 0
-141 -131 117 0
141 -85 131 117 -135 0
141 -85 -131 -117 -135 0
142 85 -140 0
-142 85 140 0
-143 85 0
142 -143 -140 0
-142 -143 140 0
142 143 -85 140 0
-142 143 -85 -140 0
-144 85 0
142 -144 140 0
-142 -144 -140 0
142 144 -85 -140 0
-142 144 -85 140 0
-145 85 0
-145 140 0
-145 -142 0
145 142 -85 -140 0
146 -85 142 0
-146 85 142 0
-147 142 0
146 -147 -85 0
-146 -147 85 0
146 147 85 -142 0
-146 147 -85 -142 0
-148 142 0
146 -148 85 0
-146 -148 -85 0
146 148 -85 -142 0
-146 148 85 -142 0
-149 146 0
-149 142 0
-149 -85 0
149 -146 85 -142 0
150 146 -142 0
-150 146 142 0
-151 146 0
150 -151 -142 0
-150 -151 142 0
150 151 -146 142 0
-150 151 -146 -142 0
-152 146 0
150 -152 142 0
-150 -152 -142 0
150 152 -146 -142 0
-150 152 -146 142 0
-153 146 0
-153 142 0
-153 -150 0
153 150 -146 -142 0
154 -146 150 0
-154 146 150 0
-155 150 0
154 -155 -146 0
-154 -155 146 0
154 155 146 -150 0
-154 155 -146 -150 0
-156 150 0
154 -156 146 0
-154 -156 -146 0
154 156 -146 -150 0
-154 156 146 -150 0
-157 154 0
-157 150 0
-157 -146 0
157 -154 146 -150 0
158 154 -150 0
-158 154 150 0
-159 154 0
158 -159 -150 0
-158 -159 150 0
158 159 -154 150 0
-158 159 -154 -150 0
-160 154 0
158 -160 150 0
-158 -160 -150 0
158 160 -154 -150 0
-158 160 -154 150 0
-161 154 0
-161 150 0
-161 -158 0
161 158 -154 -150 0
162 116 -139 0
162 -116 139 0
-162 116 139 0
-162 -116 -139 0
163 112 -135 0
163 -112 135 0
-163 112 135 0
-163 -112 -135 0
-164 116 0
-164 135 0
-164 139 -112 0
-164 -139 112 0
164 -116 139 112 -135 0
164 -116 -139 -112 -135 0
165 116 -163 0
-165 116 163 0
-166 116 0
165 -166 -163 0
-165 -166 163 0
165 166 -116 163 0
-165 166 -116 -163 0
-167 116 0
165 -167 163 0
-165 -167 -163 0
165 167 -116 -163 0
-165 167 -116 163 0
-168 116 0
-168 163 0
-168 -165 0
168 165 -116 -163 0
169 -116 165 0
-169 116 165 0
-170 165 0
169 -170 -116 0
-169 -170 116 0
169 170 116 -165 0
-169 170 -116 -165 0
-171 165 0
169 -171 116 0
-169 -171 -116 0
169 171 -116 -165 0
-169 171 116 -165 0
-172 169 0
-172 165 0
-172 -116 0
172 -169 116 -165 0
173 169 -165 0
-173 169 165 0
-174 169 0
173 -174 -165 0
-173 -174 165 0
173 174 -169 165 0
-173 174 -169 -165 0
-175 169 0
173 -175 165 0
-173 -175 -165 0
173 175 -169 -165 0
-173 175 -169 165 0
-176 169 0
-176 165 0
-176 -173 0
176 173 -169 -165 0
177 -169 173 0
-177 169 173 0
-178 173 0
177 -178 -169 0
-177 -178 169 0
177 178 169 -173 0
-177 178 -169 -173 0
-179 173 0
177 -179 169 0
-177 -179 -169 0
177 179 -169 -173 0
-177 179 169 -173 0
-180 177 0
-180 173 0
-180 -169 0
180 -177 169 -173 0
181 177 -173 0
-181 177 173 0
-182 177 0
181 -182 -173 0
-181 -182 173 0
181 182 -177 173 0
-181 182 -177 -173 0
-183 177 0
181 -183 173 0
-181 -183 -173 0
181 183 -177 -173 0
-181 183 -177 173 0
-184 177 0
-184 173 0
-184 -181 0
184 181 -177 -173 0
185 154 -177 0
185 -154 177 0
-185 154 177 0
-185 -154 -177 0
186 158 -181 0
186 -158 181 0
-186 158 181 0
-186 -158 -181 0
-187 154 0
-187 181 0
-187 177 -158 0
-187 -177 158 0
187 -154 177 158 -181 0
187 -154 -177 -158 -181 0
188 162 -135 0
-188 162 135 0
-189 162 0
188 -189 -135 0
-188 -189 135 0
188 189 -162 135 0
-188 189 -162 -135 0
-190 162 0
188 -190 135 0
-188 -190 -135 0
188 190 -162 -135 0
-188 190 -162 135 0
-191 162 0
-191 135 0
-191 -188 0
191 188 -162 -135 0
192 -162 188 0
-192 162 188 0
-193 188 0
192 -193 -162 0
-192 -193 162 0
192 193 162 -188 0
-192 193 -162 -188 0
-194 188 0
192 -194 162 0
-192 -194 -162 0
192 194 -162 -188 0
-192 194 162 -188 0
-195 192 0
-195 188 0
-195 -162 0
195 -192 162 -188 0
196 192 -188 0
-196 192 188 0
-197 192 0
196 -197 -188 0
-196 -197 188 0
196 197 -192 188 0
-196 197 -192 -188 0
-198 192 0
196 -198 188 0
-196 -198 -188 0
196 198 -192 -188 0
-196 198 -192 188 0
-199 192 0
-199 188 0
-199 -196 0
199 196 -192 -188 0
200 -192 196 0
-200 192 196 0
-201 196 0
200 -201 -192 0
-200 -201 192 0
200 201 192 -196 0
-200 201 -192 -196 0
-202 196 0
200 -202 192 0
-200 -202 -192 0
200 202 -192 -196 0
-200 202 192 -196 0
-203 200 0
-203 196 0
-203 -192 0
203 -200 192 -196 0
204 200 -196 0
-204 200 196 0
-205 200 0
204 -205 -196 0
-204 -205 196 0
204 205 -200 196 0
-204 205 -200 -196 0
-206 200 0
204 -206 196 0
-204 -206 -196 0
204 206 -200 -196 0
-204 206 -200 196 0
-207 200 0
-207 196 0
-207 -204 0
207 204 -200 -196 0
208 154 -200 0
208 -154 200 0
-208 154 200 0
-208 -154 -200 0
209 186 -204 0
209 -186 204 0
-209 186 204 0
-209 -186 -204 0
-210 154 0
-210 204 0
-210 200 -186 0
-210 -200 186 0
210 -154 200 186 -204 0
210 -154 -200 -186 -204 0
211 154 -209 0
-211 154 209 0
-212 154 0
211 -212 -209 0
-211 -212 209 0
211 212 -154 209 0
-211 212 -154 -209 0
-213 154 0
211 -213 209 0
-211 -213 -209 0
211 213 -154 -209 0
-211 213 -154 209 0
-214 154 0
-214 209 0
-214 -211 0
214 211 -154 -209 0
215 -154 211 0
-215 154 211 0
-216 211 0
215 -216 -154 0
-215 -216 154 0
215 216 154 -211 0
-215 216 -154 -211 0
-217 211 0
215 -217 154 0
-215 -217 -154 0
215 217 -154 -211 0
-215 217 154 -211 0
-218 215 0
-218 211 0
-218 -154 0
218 -215 154 -211 0
219 215 -211 0
-219 215 211 0
-220 215 0
219 -220 -211 0
-219 -220 211 0
219 220 -215 211 0
-219 220 -215 -211 0
-221 215 0
219 -221 211 0
-219 -221 -211 0
219 221 -215 -211 0
-219 221 -215 211 0
-222 215 0
-222 211 0
-222 -219 0
222 219 -215 -211 0
223 -215 219 0
-223 215 219 0
-224 219 0
223 -224 -215 0
-223 -224 215 0
223 224 215 -219 0
-223 224 -215 -219 0
-225 219 0
223 -225 215 0
-223 -225 -215 0
223 225 -215 -219 0
-223 225 215 -219 0
-226 223 0
-226 219 0
-226 -215 0
226 -223 215 -219 0
227 223 -219 0
-227 223 219 0
-228 223 0
227 -228 -219 0
-227 -228 219 0
227 228 -223 219 0
-227 228 -223 -219 0
-229 223 0
227 -229 219 0
-227 -229 -219 0
227 229 -223 -219 0
-227 229 -223 219 0
-230 223 0
-230 219 0
-230 -227 0
230 227 -223 -219 0
231 185 -208 0
231 -185 208 0
-231 185 208 0
-231 -185 -208 0
232 181 -204 0
232 -181 204 0
-232 181 204 0
-232 -181 -204 0
-233 185 0
-233 204 0
-233 208 -181 0
-233 -208 181 0
233 -185 208 181 -204 0
233 -185 -208 -181 -204 0
234 185 -232 0
-234 185 232 0
-235 185 0
234 -235 -232 0
-234 -235 232 0
234 235 -185 232 0
-234 235 -185 -232 0
-236 185 0
234 -236 232 0
-234 -236 -232 0
234 236 -185 -232 0
-234 236 -185 232 0
-237 185 0
-237 232 0
-237 -234 0
237 234 -185 -232 0
238 -185 234 0
-238 185 234 0
-239 234 0
238 -239 -185 0
-238 -239 185 0
238 239 185 -234 0
-238 239 -185 -234 0
-240 234 0
238 -240 185 0
-238 -240 -185 0
238 240 -185 -234 0
-238 240 185 -234 0
-241 238 0
-241 234 0
-241 -185 0
241 -238 185 -234 0
242 238 -234 0
-242 238 234 0
-243 238 0
242 -243 -234 0
-242 -243 234 0
242 243 -238 234 0
-242 243 -238 -234 0
-244 238 0
242 -244 234 0
-242 -244 -234 0
242 244 -238 -234 0
-242 244 -238 234 0
-245 238 0
-245 234 0
-245 -242 0
245 242 -238 -234 0
246 -238 242 0
-246 238 242 0
-247 242 0
246 -247 -238 0
-246 -247 238 0
246 247 238 -242 0
-246 247 -238 -242 0
-248 242 0
246 -248 238 0
-246 -248 -238 0
246 248 -238 -242 0
-246 248 238 -242 0
-249 246 0
-249 242 0
-249 -238 0
249 -246 238 -242 0
250 246 -242 0
-250 246 242 0
-251 246 0
250 -251 -242 0
-250 -251 242 0
250 251 -246 242 0
-250 251 -246 -242 0
-252 246 0
250 -252 242 0
-250 -252 -242 0
250 252 -246 -242 0
-250 252 -246 242 0
-253 246 0
-253 242 0
-253 -250 0
253 250 -246 -242 0
254 231 -204 0
-254 231 204 0
-255 231 0
254 -255 -204 0
-254 -255 204 0
254 255 -231 204 0
-254 255 -231 -204 0
-256 231 0
254 -256 204 0
-254 -256 -204 0
254 256 -231 -204 0
-254 256 -231 204 0
-257 231 0
-257 204 0
-257 -254 0
257 254 -231 -204 0
258 -231 254 0
-258 231 254 0
-259 254 0
258 -259 -231 0
-258 -259 231 0
258 259 231 -254 0
-258 259 -231 -254 0
-260 254 0
258 -260 231 0
-258 -260 -231 0
258 260 -231 -254 0
-258 260 231 -254 0
-261 258 0
-261 254 0
-261 -231 0
261 -258 231 -254 0
262 258 -254 0
-262 258 254 0
-263 258 0
262 -263 -254 0
-262 -263 254 0
262 263 -258 254 0
-262 263 -258 -254 0
-264 258 0
262 -264 254 0
-262 -264 -254 0
262 264 -258 -254 0
-262 264 -258 254 0
-265 258 0
-265 254 0
-265 -262 0
265 262 -258 -254 0
266 -258 262 0
-266 258 262 0
-267 262 0
266 -267 -258 0
-266 -267 258 0
266 267 258 -262 0
-266 267 -258 -262 0
-268 262 0
266 -268 258 0
-266 -268 -258 0
266 268 -258 -262 0
-266 268 258 -262 0
-269 266 0
-269 262 0
-269 -258 0
269 -266 258 -262 0
270 266 -262 0
-270 266 262 0
-271 266 0
270 -271 -262 0
-270 -271 262 0
270 271 -266 262 0
-270 271 -266 -262 0
-272 266 0
270 -272 262 0
-270 -272 -262 0
270 272 -266 -262 0
-270 272 -266 262 0
-273 266 0
-273 262 0
-273 -270 0
273 270 -266 -262 0
-223 0
-246 0
-250 0
-266 0
-270 0
